127
136
140
172
102
159
135
121
165
157
108
89
87
114
178
116
138
139
142
123
120
127
121
113
147
125
120
108
137
97
123
134
142
127
143
142
140
99
156
147
115
156
104
110
154
158
125
124
116
190
115
134
117
98
101
150
113
99
113
142
114
106
141
109
120
153
128
115
146
113
133
137
118
102
128
194
106
102
131
117
113
96
106
123
121
114
148
156
138
108
137
99
90
91
115
154
119
81
112
201
